<number of tasks>
50

<cycle time>
1000

<order strength>
0.198


<task times>
1 71
2 150
3 54
4 172
5 141
6 67
7 36
8 152
9 98
10 34
11 109
12 100
13 220
14 190
15 25
16 164
17 99
18 95
19 75
20 76
21 208
22 178
23 86
24 96
25 191
26 268
27 51
28 41
29 115
30 136
31 106
32 33
33 205
34 38
35 174
36 241
37 68
38 173
39 33
40 53
41 64
42 261
43 65
44 61
45 80
46 201
47 31
48 41
49 79
50 230

<precedence relations>
1,44
1,45
2,41
3,20
5,10
5,15
5,34
6,11
7,8
7,9
8,47
9,12
9,14
9,16
9,18
10,17
11,13
11,15
12,19
12,24
12,26
12,29
13,41
14,20
14,22
17,23
18,21
18,41
19,25
20,26
20,33
21,31
22,29
22,39
23,30
23,32
24,27
24,28
25,36
26,37
26,38
27,34
30,49
31,34
31,36
33,35
33,39
34,40
34,45
36,42
38,43
39,41
39,44
40,47
42,48
43,49
45,46
45,50

<end>
